WARNING: for repeatability, setting FPU to use double precision
============================[ Problem Statistics ]=============================
|                                                                             |
|  Number of variables:            50                                         |
|  Number of clauses:             218                                         |
|  Parse time:                   0.00 s                                       |
|                                                                             |
============================[ Search Statistics ]==============================
| Conflicts |          ORIGINAL         |          LEARNT          | Progress |
|           |    Vars  Clauses Literals |    Limit  Clauses Lit/Cl |          |
===============================================================================
===============================================================================
restarts              : 1
conflicts             : 50             (34868 /sec)
decisions             : 61             (0.00 % random) (42538 /sec)
propagations          : 740            (516039 /sec)
conflict literals     : 152            (17.39 % deleted)
Memory used           : 20.00 MB
CPU time              : 0.001434 s

UNSATISFIABLE
